40	100	100	100
9	7	4
5	7	1
8	7	5
1	5	4
3	2	8
8	5	5
8	9	2
2	8	7
9	1	2
2	1	2
5	8	5
9	1	6
7	9	4
1	5	6
8	1	4
2	1	5
1	5	1
6	4	2
6	6	1
2	6	6
7	9	8
5	7	4
3	4	2
6	9	6
7	7	1
4	9	1
1	5	5
1	3	4
1	3	4
7	7	6
7	6	6
7	3	8
8	8	3
4	8	5
6	9	2
6	6	9
5	3	7
2	1	5
6	2	7
4	2	4
